; benchmark generated from python API
(set-info :status unknown)
(declare-fun x_days () Int)
(declare-fun y_days () Int)
(declare-fun z_days () Int)
(assert
 (>= x_days (- 36584)))
(assert
 (<= x_days 36829))
(assert
 (= x_days 8371))
(assert
 (>= y_days (- 36584)))
(assert
 (<= y_days 36829))
(assert
 (>= z_days (- 36584)))
(assert
 (<= z_days 36829))
(assert
 (let (($x29 (or (and (= (mod 2000 4) 0) (and (distinct (mod 2000 100) 0) true)) (= (mod 2000 400) 0))))
 (let ((?x36 (ite (= 3 2) (ite $x29 31 31) (ite (= 3 1) (ite $x29 0 0) 0))))
 (let ((?x40 (ite $x29 60 59)))
 (let ((?x41 (ite (= 3 3) ?x40 ?x36)))
 (let ((?x46 (ite (= 3 4) (ite $x29 91 90) ?x41)))
 (let ((?x52 (ite (= 3 5) (ite $x29 121 120) ?x46)))
 (let ((?x58 (ite (= 3 6) (ite $x29 152 151) ?x52)))
 (let ((?x64 (ite (= 3 7) (ite $x29 182 181) ?x58)))
 (let ((?x70 (ite (= 3 8) (ite $x29 213 212) ?x64)))
 (let ((?x76 (ite (= 3 9) (ite $x29 244 243) ?x70)))
 (let ((?x82 (ite (= 3 10) (ite $x29 274 273) ?x76)))
 (let ((?x88 (ite (= 3 11) (ite $x29 305 304) ?x82)))
 (let ((?x16 (- (+ (* 365 (- 2000 1)) (div (- 2000 1) 4)) (div (- 2000 1) 100))))
 (let ((?x95 (+ (+ ?x16 (div (- 2000 1) 400)) (ite (= 3 12) (ite $x29 335 334) ?x88))))
 (let ((?x97 (+ ?x95 (- 1 1))))
 (let ((?x829 (+ x_days ?x97)))
 (let ((?x391 (mod ?x829 146097)))
 (let ((?x523 (div ?x391 36524)))
 (let ((?x567 (ite (<= 4 ?x523) 3 ?x523)))
 (let ((?x333 (- ?x391 (* ?x567 36524))))
 (let ((?x380 (mod ?x333 1461)))
 (let ((?x522 (div ?x380 365)))
 (let ((?x2344 (ite (<= 4 ?x522) 3 ?x522)))
 (let ((?x339 (+ (+ (* (div ?x829 146097) 400) (* ?x567 100)) (* (div ?x333 1461) 4))))
 (let ((?x306 (+ (+ ?x339 ?x2344) 1)))
 (let (($x482 (or (and (= (mod ?x306 4) 0) (and (distinct (mod ?x306 100) 0) true)) (= (mod ?x306 400) 0))))
 (let ((?x362 (- ?x380 (* ?x2344 365))))
 (let ((?x1055 (ite $x482 31 31)))
 (let (($x253 (>= ?x362 ?x1055)))
 (let ((?x783 (ite $x253 (+ (- ?x362 ?x1055) 1) (+ (- ?x362 (ite $x482 0 0)) 1))))
 (let ((?x2647 (ite $x482 60 59)))
 (let (($x623 (>= ?x362 ?x2647)))
 (let ((?x1056 (ite $x482 91 90)))
 (let (($x183 (>= ?x362 ?x1056)))
 (let ((?x292 (ite $x183 (+ (- ?x362 ?x1056) 1) (ite $x623 (+ (- ?x362 ?x2647) 1) ?x783))))
 (let ((?x463 (ite $x482 121 120)))
 (let (($x597 (>= ?x362 ?x463)))
 (let ((?x518 (ite $x482 152 151)))
 (let (($x691 (>= ?x362 ?x518)))
 (let ((?x770 (ite $x691 (+ (- ?x362 ?x518) 1) (ite $x597 (+ (- ?x362 ?x463) 1) ?x292))))
 (let ((?x234 (ite $x482 182 181)))
 (let (($x133 (>= ?x362 ?x234)))
 (let ((?x418 (ite $x482 213 212)))
 (let (($x795 (>= ?x362 ?x418)))
 (let ((?x352 (ite $x795 (+ (- ?x362 ?x418) 1) (ite $x133 (+ (- ?x362 ?x234) 1) ?x770))))
 (let ((?x844 (ite $x482 244 243)))
 (let (($x336 (>= ?x362 ?x844)))
 (let ((?x305 (ite $x482 274 273)))
 (let (($x707 (>= ?x362 ?x305)))
 (let ((?x296 (ite $x707 (+ (- ?x362 ?x305) 1) (ite $x336 (+ (- ?x362 ?x844) 1) ?x352))))
 (let ((?x199 (ite $x482 305 304)))
 (let (($x697 (>= ?x362 ?x199)))
 (let ((?x373 (ite $x482 335 334)))
 (let (($x324 (>= ?x362 ?x373)))
 (let ((?x110 (ite $x324 (+ (- ?x362 ?x373) 1) (ite $x697 (+ (- ?x362 ?x199) 1) ?x296))))
 (let ((?x282 (ite $x597 5 (ite $x183 4 (ite $x623 3 (ite $x253 2 1))))))
 (let ((?x446 (ite $x336 9 (ite $x795 8 (ite $x133 7 (ite $x691 6 ?x282))))))
 (let ((?x109 (+ (ite $x324 12 (ite $x697 11 (ite $x707 10 ?x446))) (+ (* 0 12) 1))))
 (let ((?x786 (- ?x109 1)))
 (let ((?x471 (+ (mod ?x786 12) 1)))
 (let ((?x270 (ite (or (= ?x471 4) (= ?x471 6) (= ?x471 9) (= ?x471 11)) 30 31)))
 (let (($x655 (and (= (mod (+ ?x306 (+ 0 (div ?x786 12))) 4) 0) (and (distinct (mod (+ ?x306 (+ 0 (div ?x786 12))) 100) 0) true))))
 (let ((?x357 (ite (or $x655 (= (mod (+ ?x306 (+ 0 (div ?x786 12))) 400) 0)) 29 28)))
 (let ((?x723 (ite (= ?x471 2) ?x357 ?x270)))
 (let ((?x395 (ite (> 1 ?x110) 1 (ite (> ?x110 ?x723) ?x723 ?x110))))
 (let ((?x701 (ite (> 1 ?x395) 1 (ite (> ?x395 ?x723) ?x723 ?x395))))
 (let ((?x277 (+ ?x306 (+ 0 (div ?x786 12)))))
 (let ((?x605 (+ ?x277 (* (div 0 146097) 400))))
 (let (($x2501 (or (and (= (mod ?x605 4) 0) (and (distinct (mod ?x605 100) 0) true)) (= (mod ?x605 400) 0))))
 (let ((?x233 (ite (= 2 ?x471) (ite $x2501 31 31) (ite (= 1 ?x471) (ite $x2501 0 0) 0))))
 (let ((?x514 (ite (= 4 ?x471) (ite $x2501 91 90) (ite (= 3 ?x471) (ite $x2501 60 59) ?x233))))
 (let ((?x596 (ite (= 6 ?x471) (ite $x2501 152 151) (ite (= 5 ?x471) (ite $x2501 121 120) ?x514))))
 (let ((?x426 (ite (= 8 ?x471) (ite $x2501 213 212) (ite (= 7 ?x471) (ite $x2501 182 181) ?x596))))
 (let ((?x674 (ite (= 10 ?x471) (ite $x2501 274 273) (ite (= 9 ?x471) (ite $x2501 244 243) ?x426))))
 (let ((?x626 (ite (= 12 ?x471) (ite $x2501 335 334) (ite (= 11 ?x471) (ite $x2501 305 304) ?x674))))
 (let ((?x175 (- (+ (* 365 (- ?x605 1)) (div (- ?x605 1) 4)) (div (- ?x605 1) 100))))
 (let ((?x313 (- (+ (+ (+ ?x175 (div (- ?x605 1) 400)) ?x626) (- ?x701 1)) ?x97)))
 (let ((?x476 (+ (+ ?x313 (mod 0 146097)) ?x97)))
 (let ((?x699 (mod ?x476 146097)))
 (let ((?x668 (div ?x699 36524)))
 (let ((?x511 (ite (<= 4 ?x668) 3 ?x668)))
 (let ((?x2018 (- ?x699 (* ?x511 36524))))
 (let ((?x261 (mod ?x2018 1461)))
 (let ((?x379 (div ?x261 365)))
 (let ((?x802 (ite (<= 4 ?x379) 3 ?x379)))
 (let ((?x457 (+ (+ (* (div ?x476 146097) 400) (* ?x511 100)) (* (div ?x2018 1461) 4))))
 (let ((?x427 (+ (+ ?x457 ?x802) 1)))
 (let (($x747 (or (and (= (mod ?x427 4) 0) (and (distinct (mod ?x427 100) 0) true)) (= (mod ?x427 400) 0))))
 (let ((?x574 (- ?x261 (* ?x802 365))))
 (let ((?x551 (ite $x747 31 31)))
 (let (($x2343 (>= ?x574 ?x551)))
 (let ((?x249 (ite $x2343 (+ (- ?x574 ?x551) 1) (+ (- ?x574 (ite $x747 0 0)) 1))))
 (let ((?x869 (ite $x747 60 59)))
 (let (($x209 (>= ?x574 ?x869)))
 (let ((?x535 (ite $x747 91 90)))
 (let (($x245 (>= ?x574 ?x535)))
 (let ((?x223 (ite $x245 (+ (- ?x574 ?x535) 1) (ite $x209 (+ (- ?x574 ?x869) 1) ?x249))))
 (let ((?x589 (ite $x747 121 120)))
 (let (($x1061 (>= ?x574 ?x589)))
 (let ((?x759 (ite $x747 152 151)))
 (let (($x758 (>= ?x574 ?x759)))
 (let ((?x1985 (ite $x758 (+ (- ?x574 ?x759) 1) (ite $x1061 (+ (- ?x574 ?x589) 1) ?x223))))
 (let ((?x547 (ite $x747 182 181)))
 (let (($x458 (>= ?x574 ?x547)))
 (let ((?x452 (ite $x747 213 212)))
 (let (($x698 (>= ?x574 ?x452)))
 (let ((?x417 (ite $x698 (+ (- ?x574 ?x452) 1) (ite $x458 (+ (- ?x574 ?x547) 1) ?x1985))))
 (let ((?x240 (ite $x747 244 243)))
 (let (($x1089 (>= ?x574 ?x240)))
 (let ((?x533 (ite $x747 274 273)))
 (let (($x3277 (>= ?x574 ?x533)))
 (let ((?x2055 (ite $x3277 (+ (- ?x574 ?x533) 1) (ite $x1089 (+ (- ?x574 ?x240) 1) ?x417))))
 (let ((?x330 (ite $x747 305 304)))
 (let (($x735 (>= ?x574 ?x330)))
 (let ((?x637 (ite $x747 335 334)))
 (let (($x2076 (>= ?x574 ?x637)))
 (let ((?x125 (ite $x2076 (+ (- ?x574 ?x637) 1) (ite $x735 (+ (- ?x574 ?x330) 1) ?x2055))))
 (let (($x1323 (= 0 0)))
 (let (($x784 (and (= (mod (ite $x1323 ?x277 ?x427) 4) 0) (and (distinct (mod (ite $x1323 ?x277 ?x427) 100) 0) true))))
 (let (($x619 (or $x784 (= (mod (ite $x1323 ?x277 ?x427) 400) 0))))
 (let ((?x494 (ite $x1061 5 (ite $x245 4 (ite $x209 3 (ite $x2343 2 1))))))
 (let ((?x2810 (ite $x1089 9 (ite $x698 8 (ite $x458 7 (ite $x758 6 ?x494))))))
 (let ((?x549 (ite $x1323 ?x471 (ite $x2076 12 (ite $x735 11 (ite $x3277 10 ?x2810))))))
 (let ((?x375 (ite (= 2 ?x549) (ite $x619 31 31) (ite (= 1 ?x549) (ite $x619 0 0) 0))))
 (let ((?x575 (ite (= 4 ?x549) (ite $x619 91 90) (ite (= 3 ?x549) (ite $x619 60 59) ?x375))))
 (let ((?x2999 (ite (= 6 ?x549) (ite $x619 152 151) (ite (= 5 ?x549) (ite $x619 121 120) ?x575))))
 (let ((?x1174 (ite (= 8 ?x549) (ite $x619 213 212) (ite (= 7 ?x549) (ite $x619 182 181) ?x2999))))
 (let ((?x3026 (ite (= 10 ?x549) (ite $x619 274 273) (ite (= 9 ?x549) (ite $x619 244 243) ?x1174))))
 (let ((?x2878 (ite (= 12 ?x549) (ite $x619 335 334) (ite (= 11 ?x549) (ite $x619 305 304) ?x3026))))
 (let ((?x738 (+ (* 365 (- (ite $x1323 ?x277 ?x427) 1)) (div (- (ite $x1323 ?x277 ?x427) 1) 4))))
 (let ((?x141 (+ (- ?x738 (div (- (ite $x1323 ?x277 ?x427) 1) 100)) (div (- (ite $x1323 ?x277 ?x427) 1) 400))))
 (= y_days (- (+ (+ ?x141 ?x2878) (- (ite $x1323 ?x701 ?x125) 1)) ?x97))))))))))))))))))))))))))))))))))))))))))))))))))))))))))))))))))))))))))))))))))))))))))))))))))))))))))))))))))))))))))))))))))))))
(assert
 (= z_days (+ x_days 30)))
(assert
 (not (= y_days z_days)))
(check-sat)
